(set-logic QF_S)
(declare-fun var0 () String)
(declare-fun var1 () String)
(declare-fun var2 () String)
(declare-fun var3 () Int)
(declare-fun var4 () Int)
(declare-fun var5 () Int)
(declare-fun var6 () Bool)
(declare-fun var7 () Bool)
(declare-fun var8 () Bool)
(assert (< (str.indexof (str.substr var2 var3 var4) (str.substr var0 var3 var5) (str.indexof var1 var1 var5)) (str.indexof (str.substr var1 var3 var5) (str.substr var2 var3 var5) (str.indexof "h.$|y%p?@<" var0 var3))))
(assert (>= (str.indexof var2 var0 var4) (str.len var2)))
(assert (str.suffixof (str.replace "$XKr/07K""a" var1 var1) (str.replace var1 var0 var1)))
(assert (<= (str.indexof var0 var1 var3) (str.len var0)))
(check-sat)